p cnf 563 414
c p distribution  0.875 0.125
c p distribution  0.875 0.125
c p distribution  0.875 0.125
c p distribution  0.875 0.125
c p distribution  0.875 0.125
c p distribution  0.875 0.125
c p distribution  0.875 0.125
c p distribution  0.875 0.125
c p distribution  0.875 0.125
c p distribution  0.875 0.125
c p distribution  0.875 0.125
c p distribution  0.875 0.125
c p distribution  0.875 0.125
c p distribution  0.875 0.125
c p distribution  0.875 0.125
c p distribution  0.875 0.125
c p distribution  0.875 0.125
c p distribution  0.875 0.125
c p distribution  0.875 0.125
c p distribution  0.875 0.125
c p distribution  0.875 0.125
c p distribution  0.875 0.125
c p distribution  0.875 0.125
c p distribution  0.875 0.125
c p distribution  0.875 0.125
c p distribution  0.875 0.125
c p distribution  0.875 0.125
c p distribution  0.875 0.125
c p distribution  0.875 0.125
c p distribution  0.875 0.125
c p distribution  0.875 0.125
c p distribution  0.875 0.125
c p distribution  0.875 0.125
c p distribution  0.875 0.125
c p distribution  0.875 0.125
c p distribution  0.875 0.125
c p distribution  0.875 0.125
c p distribution  0.875 0.125
c p distribution  0.875 0.125
c p distribution  0.875 0.125
c p distribution  0.875 0.125
c p distribution  0.875 0.125
c p distribution  0.875 0.125
c p distribution  0.875 0.125
c p distribution  0.875 0.125
c p distribution  0.875 0.125
c p distribution  0.875 0.125
c p distribution  0.875 0.125
c p distribution  0.875 0.125
c p distribution  0.875 0.125
c p distribution  0.875 0.125
c p distribution  0.875 0.125
c p distribution  0.875 0.125
c p distribution  0.875 0.125
c p distribution  0.875 0.125
c p distribution  0.875 0.125
c p distribution  0.875 0.125
c p distribution  0.875 0.125
c p distribution  0.875 0.125
c p distribution  0.875 0.125
c p distribution  0.875 0.125
c p distribution  0.875 0.125
c p distribution  0.875 0.125
c p distribution  0.875 0.125
c p distribution  0.875 0.125
c p distribution  0.875 0.125
c p distribution  0.875 0.125
c p distribution  0.875 0.125
c p distribution  0.875 0.125
c p distribution  0.875 0.125
c p distribution  0.875 0.125
c p distribution  0.875 0.125
c p distribution  0.875 0.125
c p distribution  0.875 0.125
c p distribution  0.875 0.125
c p distribution  0.875 0.125
c p distribution  0.875 0.125
c p distribution  0.875 0.125
c p distribution  0.875 0.125
c p distribution  0.875 0.125
c p distribution  0.875 0.125
c p distribution  0.875 0.125
c p distribution  0.875 0.125
c p distribution  0.875 0.125
c p distribution  0.875 0.125
c p distribution  0.875 0.125
c p distribution  0.875 0.125
c p distribution  0.875 0.125
c p distribution  0.875 0.125
c p distribution  0.875 0.125
c p distribution  0.875 0.125
c p distribution  0.875 0.125
c p distribution  0.875 0.125
c p distribution  0.875 0.125
c p distribution  0.875 0.125
c p distribution  0.875 0.125
c p distribution  0.875 0.125
c p distribution  0.875 0.125
c p distribution  0.875 0.125
c p distribution  0.875 0.125
c p distribution  0.875 0.125
c p distribution  0.875 0.125
c p distribution  0.875 0.125
c p distribution  0.875 0.125
c p distribution  0.875 0.125
c p distribution  0.875 0.125
c p distribution  0.875 0.125
c p distribution  0.875 0.125
c p distribution  0.875 0.125
c p distribution  0.875 0.125
c p distribution  0.875 0.125
c p distribution  0.875 0.125
c p distribution  0.875 0.125
c p distribution  0.875 0.125
c p distribution  0.875 0.125
c p distribution  0.875 0.125
c p distribution  0.875 0.125
c p distribution  0.875 0.125
c p distribution  0.875 0.125
c p distribution  0.875 0.125
c p distribution  0.875 0.125
c p distribution  0.875 0.125
c p distribution  0.875 0.125
c p distribution  0.875 0.125
c p distribution  0.875 0.125
c p distribution  0.875 0.125
c p distribution  0.875 0.125
c p distribution  0.875 0.125
c p distribution  0.875 0.125
c p distribution  0.875 0.125
c p distribution  0.875 0.125
c p distribution  0.875 0.125
c p distribution  0.875 0.125
c p distribution  0.875 0.125
c p distribution  0.875 0.125
c p distribution  0.875 0.125
c p distribution  0.875 0.125
c p distribution  0.875 0.125
c p distribution  0.875 0.125
c p distribution  0.875 0.125
c p distribution  0.875 0.125
c p distribution  0.875 0.125
c p distribution  0.875 0.125
c p distribution  0.875 0.125
c p distribution  0.875 0.125
c p distribution  0.875 0.125
c p distribution  0.875 0.125
c p distribution  0.875 0.125
c p distribution  0.875 0.125
c p distribution  0.875 0.125
c p distribution  0.875 0.125
c p distribution  0.875 0.125
c p distribution  0.875 0.125
c p distribution  0.875 0.125
c p distribution  0.875 0.125
c p distribution  0.875 0.125
c p distribution  0.875 0.125
c p distribution  0.875 0.125
c p distribution  0.875 0.125
c p distribution  0.875 0.125
c p distribution  0.875 0.125
c p distribution  0.875 0.125
c p distribution  0.875 0.125
c p distribution  0.875 0.125
c p distribution  0.875 0.125
c p distribution  0.875 0.125
c p distribution  0.875 0.125
c p distribution  0.875 0.125
c p distribution  0.875 0.125
c p distribution  0.875 0.125
c p distribution  0.875 0.125
c p distribution  0.875 0.125
c p distribution  0.875 0.125
c p distribution  0.875 0.125
c p distribution  0.875 0.125
c p distribution  0.875 0.125
c p distribution  0.875 0.125
c p distribution  0.875 0.125
c p distribution  0.875 0.125
c p distribution  0.875 0.125
c p distribution  0.875 0.125
c p distribution  0.875 0.125
c p distribution  0.875 0.125
c p distribution  0.875 0.125
c p distribution  0.875 0.125
c p distribution  0.875 0.125
c p distribution  0.875 0.125
c p distribution  0.875 0.125
c p distribution  0.875 0.125
c p distribution  0.875 0.125
c p distribution  0.875 0.125
c p distribution  0.875 0.125
c p distribution  0.875 0.125
c p distribution  0.875 0.125
c p distribution  0.875 0.125
c p distribution  0.875 0.125
c p distribution  0.875 0.125
c p distribution  0.875 0.125
c p distribution  0.875 0.125
c p distribution  0.875 0.125
c p distribution  0.875 0.125
c p distribution  0.875 0.125
c p distribution  0.875 0.125
c p distribution  0.875 0.125
c p distribution  0.875 0.125
c p distribution  0.875 0.125
427 0
-542 0
555 -472 -1 0
472 -555 -1 0
434 -444 -3 0
444 -434 -3 0
463 -518 -5 0
518 -463 -5 0
541 -526 -7 0
526 -541 -7 0
473 -519 -9 0
519 -473 -9 0
442 -429 -11 0
429 -442 -11 0
418 -480 -13 0
480 -418 -13 0
420 -463 -15 0
463 -420 -15 0
416 -470 -17 0
470 -416 -17 0
425 -446 -19 0
446 -425 -19 0
461 -476 -21 0
476 -461 -21 0
531 -443 -23 0
443 -531 -23 0
413 -440 -25 0
440 -413 -25 0
500 -439 -27 0
439 -500 -27 0
561 -542 -29 0
542 -561 -29 0
471 -531 -31 0
531 -471 -31 0
474 -445 -33 0
445 -474 -33 0
458 -561 -35 0
561 -458 -35 0
434 -417 -37 0
417 -434 -37 0
477 -468 -39 0
468 -477 -39 0
435 -562 -41 0
562 -435 -41 0
520 -500 -43 0
500 -520 -43 0
421 -465 -45 0
465 -421 -45 0
419 -415 -47 0
415 -419 -47 0
551 -485 -49 0
485 -551 -49 0
459 -507 -51 0
507 -459 -51 0
469 -533 -53 0
533 -469 -53 0
526 -530 -55 0
530 -526 -55 0
434 -427 -57 0
427 -434 -57 0
562 -536 -59 0
536 -562 -59 0
437 -501 -61 0
501 -437 -61 0
443 -527 -63 0
527 -443 -63 0
479 -429 -65 0
429 -479 -65 0
464 -495 -67 0
495 -464 -67 0
463 -558 -69 0
558 -463 -69 0
523 -505 -71 0
505 -523 -71 0
457 -436 -73 0
436 -457 -73 0
543 -548 -75 0
548 -543 -75 0
419 -547 -77 0
547 -419 -77 0
469 -537 -79 0
537 -469 -79 0
436 -539 -81 0
539 -436 -81 0
563 -470 -83 0
470 -563 -83 0
541 -530 -85 0
530 -541 -85 0
471 -488 -87 0
488 -471 -87 0
562 -454 -89 0
454 -562 -89 0
420 -463 -91 0
463 -420 -91 0
471 -488 -93 0
488 -471 -93 0
554 -510 -95 0
510 -554 -95 0
482 -413 -97 0
413 -482 -97 0
532 -539 -99 0
539 -532 -99 0
431 -423 -101 0
423 -431 -101 0
505 -433 -103 0
433 -505 -103 0
452 -430 -105 0
430 -452 -105 0
494 -441 -107 0
441 -494 -107 0
510 -549 -109 0
549 -510 -109 0
450 -458 -111 0
458 -450 -111 0
497 -528 -113 0
528 -497 -113 0
434 -477 -115 0
477 -434 -115 0
435 -562 -117 0
562 -435 -117 0
420 -498 -119 0
498 -420 -119 0
457 -436 -121 0
436 -457 -121 0
533 -417 -123 0
417 -533 -123 0
489 -563 -125 0
563 -489 -125 0
517 -485 -127 0
485 -517 -127 0
420 -483 -129 0
483 -420 -129 0
425 -492 -131 0
492 -425 -131 0
464 -478 -133 0
478 -464 -133 0
503 -496 -135 0
496 -503 -135 0
420 -487 -137 0
487 -420 -137 0
463 -558 -139 0
558 -463 -139 0
563 -470 -141 0
470 -563 -141 0
418 -416 -143 0
416 -418 -143 0
479 -501 -145 0
501 -479 -145 0
445 -439 -147 0
439 -445 -147 0
544 -517 -149 0
517 -544 -149 0
561 -485 -151 0
485 -561 -151 0
473 -438 -153 0
438 -473 -153 0
546 -558 -155 0
558 -546 -155 0
535 -447 -157 0
447 -535 -157 0
428 -487 -159 0
487 -428 -159 0
483 -499 -161 0
499 -483 -161 0
520 -455 -163 0
455 -520 -163 0
563 -528 -165 0
528 -563 -165 0
546 -558 -167 0
558 -546 -167 0
459 -534 -169 0
534 -459 -169 0
486 -501 -171 0
501 -486 -171 0
416 -514 -173 0
514 -416 -173 0
543 -544 -175 0
544 -543 -175 0
519 -530 -177 0
530 -519 -177 0
510 -549 -179 0
549 -510 -179 0
430 -554 -181 0
554 -430 -181 0
536 -537 -183 0
537 -536 -183 0
476 -553 -185 0
553 -476 -185 0
529 -550 -187 0
550 -529 -187 0
491 -554 -189 0
554 -491 -189 0
541 -532 -191 0
532 -541 -191 0
541 -532 -193 0
532 -541 -193 0
474 -439 -195 0
439 -474 -195 0
469 -537 -197 0
537 -469 -197 0
560 -495 -199 0
495 -560 -199 0
449 -505 -201 0
505 -449 -201 0
418 -456 -203 0
456 -418 -203 0
545 -448 -205 0
448 -545 -205 0
489 -472 -207 0
472 -489 -207 0
476 -553 -209 0
553 -476 -209 0
562 -536 -211 0
536 -562 -211 0
460 -487 -213 0
487 -460 -213 0
533 -524 -215 0
524 -533 -215 0
437 -492 -217 0
492 -437 -217 0
459 -450 -219 0
450 -459 -219 0
519 -526 -221 0
526 -519 -221 0
525 -507 -223 0
507 -525 -223 0
520 -466 -225 0
466 -520 -225 0
435 -562 -227 0
562 -435 -227 0
516 -419 -229 0
419 -516 -229 0
449 -433 -231 0
433 -449 -231 0
414 -440 -233 0
440 -414 -233 0
518 -522 -235 0
522 -518 -235 0
491 -556 -237 0
556 -491 -237 0
426 -467 -239 0
467 -426 -239 0
471 -504 -241 0
504 -471 -241 0
462 -521 -243 0
521 -462 -243 0
471 -418 -245 0
418 -471 -245 0
506 -430 -247 0
430 -506 -247 0
420 -502 -249 0
502 -420 -249 0
442 -429 -251 0
429 -442 -251 0
555 -486 -253 0
486 -555 -253 0
414 -452 -255 0
452 -414 -255 0
559 -459 -257 0
459 -559 -257 0
513 -523 -259 0
523 -513 -259 0
546 -504 -261 0
504 -546 -261 0
466 -535 -263 0
535 -466 -263 0
520 -474 -265 0
474 -520 -265 0
516 -503 -267 0
503 -516 -267 0
540 -417 -269 0
417 -540 -269 0
559 -534 -271 0
534 -559 -271 0
557 -515 -273 0
515 -557 -273 0
510 -465 -275 0
465 -510 -275 0
484 -440 -277 0
440 -484 -277 0
479 -437 -279 0
437 -479 -279 0
470 -456 -281 0
456 -470 -281 0
560 -495 -283 0
495 -560 -283 0
516 -545 -285 0
545 -516 -285 0
455 -446 -287 0
446 -455 -287 0
454 -453 -289 0
453 -454 -289 0
540 -417 -291 0
417 -540 -291 0
532 -451 -293 0
451 -532 -293 0
461 -540 -295 0
540 -461 -295 0
478 -433 -297 0
433 -478 -297 0
502 -422 -299 0
422 -502 -299 0
425 -490 -301 0
490 -425 -301 0
563 -419 -303 0
419 -563 -303 0
425 -514 -305 0
514 -425 -305 0
441 -535 -307 0
535 -441 -307 0
529 -522 -309 0
522 -529 -309 0
488 -457 -311 0
457 -488 -311 0
426 -467 -313 0
467 -426 -313 0
431 -453 -315 0
453 -431 -315 0
421 -481 -317 0
481 -421 -317 0
488 -457 -319 0
457 -488 -319 0
546 -480 -321 0
480 -546 -321 0
418 -480 -323 0
480 -418 -323 0
555 -525 -325 0
525 -555 -325 0
536 -537 -327 0
537 -536 -327 0
519 -541 -329 0
541 -519 -329 0
549 -453 -331 0
453 -549 -331 0
431 -454 -333 0
454 -431 -333 0
499 -510 -335 0
510 -499 -335 0
533 -468 -337 0
468 -533 -337 0
479 -429 -339 0
429 -479 -339 0
475 -413 -341 0
413 -475 -341 0
562 -454 -343 0
454 -562 -343 0
512 -424 -345 0
424 -512 -345 0
550 -432 -347 0
432 -550 -347 0
538 -481 -349 0
481 -538 -349 0
432 -496 -351 0
496 -432 -351 0
512 -497 -353 0
497 -512 -353 0
549 -431 -355 0
431 -549 -355 0
559 -509 -357 0
509 -559 -357 0
513 -548 -359 0
548 -513 -359 0
554 -493 -361 0
493 -554 -361 0
520 -443 -363 0
443 -520 -363 0
420 -463 -365 0
463 -420 -365 0
509 -490 -367 0
490 -509 -367 0
459 -490 -369 0
490 -459 -369 0
436 -451 -371 0
451 -436 -371 0
447 -428 -373 0
428 -447 -373 0
543 -462 -375 0
462 -543 -375 0
477 -427 -377 0
427 -477 -377 0
529 -552 -379 0
552 -529 -379 0
541 -532 -381 0
532 -541 -381 0
493 -515 -383 0
515 -493 -383 0
461 -540 -385 0
540 -461 -385 0
459 -521 -387 0
521 -459 -387 0
557 -552 -389 0
552 -557 -389 0
482 -440 -391 0
440 -482 -391 0
431 -423 -393 0
423 -431 -393 0
506 -508 -395 0
508 -506 -395 0
469 -533 -397 0
533 -469 -397 0
477 -524 -399 0
524 -477 -399 0
416 -494 -401 0
494 -416 -401 0
524 -468 -403 0
468 -524 -403 0
436 -451 -405 0
451 -436 -405 0
459 -509 -407 0
509 -459 -407 0
545 -496 -409 0
496 -545 -409 0
461 -476 -411 0
476 -461 -411 0

